locations = 19;
cpu_capacity = [100, 100, 100, 100, 100, 100, 100, 100, 100, 100, 100, 100, 100, 100, 0, 0, 0, 0, 0];
services_cpu_usage = [2, 10, 8, 35, 1, 21, 10, 37, 28, 20, 19, 33, 3, 1, 14, 26, 23, 32, 23, 9, 25, 12, 33, 4, 4, 8, 23, 28, 9, 23, 35, 7, 36, 37, 33, 23, 8, 21, 1, 11, 12, 36, 20, 37, 38, 27, 6, 16, 1, 11, 20, 9, 24, 23, 26, 30, 9, 11, 10, 18, 5, 14, 7, 30, 3, 22, 20, 35, 8, 17, 27, 3, 14, 21, 20];
services = 75;
coms = [|
   0,0,0,0,0,0,0,0,0,0,0,0,0,0,0,0,0,0,0,0,0,0,0,0,0,0,0,0,0,0,0,0,0,0,0,0,0,0,0,0,0,0,0,0,0,0,0,0,0,0,0,0,0,0,0,0,0,0,0,0,0,0,0,0,0,0,0,0,0,0,0,0,23120,0,0,
   |0,0,0,0,0,0,0,0,0,0,0,22720,0,0,0,0,0,0,0,0,0,0,0,0,0,0,0,0,22720,0,0,0,22720,0,0,0,0,0,0,0,0,0,0,0,0,0,0,0,0,0,0,0,0,0,0,0,0,0,0,0,22720,0,0,0,0,0,0,0,0,0,0,0,0,0,0,
   |0,0,0,0,2100000,0,0,0,0,0,0,0,0,0,0,0,0,0,0,0,0,0,0,0,0,0,0,0,0,0,0,0,0,0,0,0,0,0,0,0,0,0,0,0,0,0,0,0,0,0,0,0,0,0,0,0,0,0,0,0,0,0,0,0,0,0,0,0,0,0,0,0,0,0,0,
   |0,0,0,0,0,0,0,0,0,0,0,0,0,0,0,0,0,0,0,0,0,0,0,0,0,0,0,0,0,0,0,0,0,0,0,0,0,0,0,0,0,23120,0,0,0,0,0,0,0,0,0,0,0,0,0,0,0,0,0,0,0,0,0,0,0,0,0,0,0,0,0,0,0,0,0,
   |0,0,0,0,0,0,0,0,0,0,0,0,0,0,0,0,0,0,0,0,0,0,0,220800,0,0,0,0,0,0,0,0,0,220800,0,0,0,0,0,0,0,0,0,0,0,0,0,0,0,0,0,0,0,0,0,0,0,0,0,0,0,0,0,0,0,0,0,0,0,0,0,0,0,0,0,
   |0,0,0,0,0,0,0,0,2100000,0,0,0,0,0,0,0,0,0,0,0,0,0,0,0,0,0,0,0,0,0,0,0,0,0,0,0,0,0,0,0,0,0,0,0,0,0,0,0,0,0,0,0,0,0,0,0,0,0,0,0,0,0,0,0,0,0,0,0,0,0,0,0,0,0,0,
   |0,0,0,0,0,0,0,0,0,0,0,0,0,0,0,0,0,0,0,0,0,0,0,0,0,0,0,0,0,0,0,0,0,0,0,0,0,0,0,0,0,0,220800,0,0,0,0,0,0,0,0,0,0,0,0,0,0,0,0,0,0,0,0,0,0,220800,0,0,0,0,0,0,0,0,0,
   |0,0,0,0,0,0,0,0,0,0,0,0,0,0,0,0,0,0,0,0,0,0,0,0,0,0,0,0,0,0,0,0,0,0,0,0,0,0,0,0,0,0,0,22720,0,0,0,0,0,0,0,0,0,0,0,0,0,0,0,0,0,0,0,0,0,0,0,0,0,0,0,0,0,0,0,
   |0,0,0,0,0,220800,0,0,0,0,0,0,0,0,0,0,0,0,0,0,0,0,0,0,0,0,0,0,0,0,0,0,0,0,0,0,0,0,0,0,0,0,0,0,0,0,0,0,0,0,0,0,0,0,0,0,0,0,0,0,0,0,0,0,0,0,0,0,0,0,0,0,0,220800,0,
   |0,0,0,0,0,0,0,0,0,0,0,0,0,0,0,0,0,0,0,0,0,0,0,0,0,0,0,0,0,3739200,0,0,0,0,0,0,0,0,0,0,0,0,0,0,0,0,0,0,0,0,0,0,0,0,0,0,0,0,0,0,0,0,0,0,0,0,0,0,0,0,0,0,0,0,0,
   |0,0,0,0,0,0,22720,0,0,0,0,0,0,0,0,0,0,0,0,0,0,0,0,0,0,0,0,0,0,0,0,0,0,0,0,0,0,0,0,0,0,0,0,0,0,0,0,0,0,0,0,0,0,0,0,0,0,0,0,0,0,0,0,0,0,0,0,0,0,0,0,0,0,0,0,
   |0,0,0,0,0,0,0,8160,0,0,0,0,0,0,0,0,8160,0,0,0,0,0,0,0,0,0,0,0,0,0,0,0,0,0,0,0,0,0,0,0,0,0,0,0,0,0,0,0,0,0,0,0,8160,0,0,0,0,0,0,0,0,0,0,0,0,0,0,0,0,0,0,0,0,0,0,
   |0,0,0,0,0,0,0,0,0,0,0,0,0,0,0,0,0,1800000,0,0,0,0,0,0,0,0,0,0,0,0,0,0,0,0,0,0,0,0,0,0,0,0,0,0,0,0,0,0,0,0,0,0,0,0,0,0,0,0,0,0,0,0,0,0,0,0,0,0,0,0,0,0,0,0,0,
   |0,0,0,0,0,0,0,0,0,0,0,0,0,0,0,0,0,0,0,0,0,0,0,0,0,0,0,0,0,0,0,0,0,0,0,4416,0,0,0,0,0,0,0,0,0,0,0,0,0,0,0,0,0,0,0,0,0,0,0,0,0,0,0,0,0,0,0,0,0,0,0,0,0,0,0,
   |0,0,0,0,0,0,0,0,0,0,0,0,0,0,0,0,0,0,0,0,0,0,0,0,2100000,0,0,0,0,0,0,0,0,0,0,0,0,0,0,0,0,0,0,0,0,0,0,0,0,0,0,0,0,0,0,0,0,0,0,0,0,0,0,0,0,0,0,0,0,0,0,0,0,0,0,
   |0,0,0,0,0,0,0,0,0,0,0,0,0,0,0,0,0,0,0,0,0,0,0,0,0,0,0,0,0,0,0,0,0,0,0,0,18864000,0,0,0,0,0,0,0,0,0,0,0,0,0,0,0,0,0,0,0,0,0,0,0,0,0,0,0,0,0,0,0,0,0,0,0,0,0,0,
   |0,0,0,0,0,0,0,0,0,0,0,0,0,0,0,0,0,0,0,0,0,0,0,0,0,0,0,0,0,0,0,0,0,0,0,0,0,0,0,0,0,0,0,0,2100000,0,0,0,0,0,0,0,0,0,0,0,0,0,0,0,0,0,0,0,0,0,0,0,0,0,0,0,0,0,0,
   |11360,0,0,0,0,0,0,0,0,0,0,0,0,0,0,0,0,0,0,0,0,0,0,0,0,0,0,0,0,0,0,0,0,0,0,0,0,0,0,0,0,0,0,0,0,0,0,0,0,0,0,0,0,0,0,0,0,0,0,0,0,0,0,0,0,0,0,0,0,0,0,0,0,0,0,
   |0,8160,0,0,0,0,0,0,0,0,0,0,0,0,0,0,0,0,0,0,0,0,0,0,0,0,0,0,0,0,0,0,0,0,0,0,0,0,0,0,0,0,0,0,0,0,0,0,0,0,0,0,0,0,0,0,0,0,0,0,0,0,0,0,0,0,0,0,0,0,0,0,0,0,0,
   |0,0,0,0,0,0,0,0,0,0,0,0,0,0,0,0,0,0,0,0,0,0,0,0,0,0,0,0,0,0,0,0,0,0,0,0,0,0,0,0,0,0,0,0,0,0,0,0,0,0,0,0,0,0,0,0,0,0,0,0,0,0,0,0,0,0,0,0,0,0,0,0,0,0,220800,
   |0,0,0,0,0,0,0,0,0,0,0,0,5565600,0,0,0,0,0,0,0,0,0,0,0,0,0,0,0,0,0,0,0,0,0,0,0,0,0,0,0,0,0,0,0,0,0,0,0,0,0,0,0,0,0,0,0,0,0,0,0,0,0,0,0,0,0,0,0,0,0,0,0,0,0,0,
   |0,0,0,0,0,0,0,0,0,0,0,0,0,220800,0,0,0,0,0,0,0,0,0,0,0,0,0,0,0,0,220800,0,0,0,0,0,0,0,0,0,0,0,0,0,0,0,0,0,0,0,0,0,0,0,0,0,0,0,0,0,0,0,0,0,0,0,0,0,0,0,0,0,0,0,0,
   |0,0,0,0,0,0,0,0,0,0,0,0,0,0,6720,0,0,0,0,0,0,0,0,0,0,0,0,0,0,0,0,0,0,0,0,0,0,0,0,0,0,0,0,0,0,0,0,0,0,0,0,0,0,0,0,0,0,0,0,0,0,0,0,0,0,0,0,0,0,0,0,0,0,0,0,
   |0,0,11360,0,11360,0,0,0,0,0,0,0,0,0,0,0,0,0,0,0,0,0,0,0,0,0,0,0,0,0,0,0,0,0,0,0,0,0,0,0,0,0,0,0,0,0,0,0,0,0,0,0,0,0,0,0,0,0,0,0,0,11360,0,0,0,0,0,0,0,0,0,0,0,0,0,
   |0,0,0,0,0,0,0,0,0,0,0,0,0,0,0,0,0,0,0,0,0,0,0,0,0,0,0,0,0,0,0,0,0,0,1800000,0,0,0,0,0,0,0,0,0,0,0,0,0,0,0,0,0,0,0,0,0,0,0,0,0,0,0,0,0,0,0,0,0,0,0,0,0,0,0,0,
   |0,0,0,0,0,0,0,0,0,0,0,0,0,0,0,0,0,0,0,0,0,0,0,0,0,0,0,0,0,0,0,0,0,0,0,0,0,0,0,0,0,0,0,0,0,0,0,0,0,0,0,0,0,0,0,0,0,0,0,0,0,0,0,0,0,0,0,0,0,0,0,0,2100000,0,0,
   |0,0,0,0,0,0,0,0,0,0,0,0,0,0,0,2100000,0,0,0,0,0,0,0,0,0,0,0,0,0,0,0,0,0,0,0,0,0,0,0,0,0,0,0,0,0,0,0,0,0,0,0,0,0,0,0,0,0,0,0,0,0,0,0,0,0,0,0,0,0,0,0,0,0,0,0,
   |0,0,0,0,0,0,0,0,0,4416,0,0,0,0,0,0,0,0,0,0,0,0,0,0,0,0,0,0,0,0,0,0,0,0,0,0,0,0,0,0,0,0,0,0,0,0,0,0,0,0,0,0,0,0,0,0,0,0,0,0,0,0,0,0,0,0,0,0,0,0,0,0,0,0,0,
   |0,0,0,0,0,0,0,0,0,0,0,0,0,0,0,0,0,0,0,0,0,0,0,0,0,0,0,0,0,0,0,0,18864000,0,0,0,0,0,0,0,0,0,0,0,0,0,0,0,0,0,0,0,0,0,0,0,0,0,0,0,0,0,0,0,0,0,0,0,0,0,0,0,0,0,0,
   |0,0,0,0,0,2100000,0,0,0,0,0,0,0,0,0,0,0,0,0,0,0,0,0,0,0,0,0,0,0,0,0,0,0,0,0,0,0,0,0,0,0,0,0,0,0,0,0,0,0,0,0,0,0,0,0,0,0,0,0,0,0,0,0,0,0,0,0,0,0,0,0,0,0,0,0,
   |0,0,0,4416,0,0,0,0,0,0,0,0,0,0,0,0,0,0,0,0,0,0,0,0,0,0,0,0,0,0,0,0,0,0,0,0,0,0,0,0,0,0,0,0,0,0,0,0,0,0,0,0,0,0,0,0,0,0,0,0,0,0,0,0,0,0,0,0,0,0,0,0,0,0,0,
   |0,0,0,0,0,0,0,0,0,0,0,0,0,0,0,0,0,0,2100000,0,0,0,0,0,0,0,0,0,0,0,0,0,0,0,0,0,0,0,0,0,0,0,0,0,0,0,0,0,0,0,0,0,0,0,0,0,0,0,0,0,0,0,0,0,0,0,0,0,0,0,0,0,0,0,0,
   |220800,0,0,0,0,0,0,0,0,0,0,0,0,0,0,0,0,0,0,0,0,0,0,0,0,0,0,0,0,0,0,0,0,0,0,0,0,0,0,0,0,0,0,0,0,0,0,0,0,0,0,0,0,0,0,0,0,0,0,0,0,0,0,0,0,0,0,0,0,0,0,0,0,0,0,
   |0,0,0,0,0,0,0,0,0,0,0,0,0,0,0,0,0,0,0,0,0,0,0,0,0,0,0,0,0,0,0,0,0,0,0,0,0,0,0,0,0,0,0,0,0,0,0,0,0,0,0,0,0,0,0,0,0,0,0,0,0,0,220800,0,0,0,0,0,0,0,0,0,0,0,0,
   |0,0,0,0,0,0,0,0,0,0,0,0,0,0,0,0,0,0,0,0,0,0,0,0,0,0,0,0,0,0,0,0,0,0,0,0,0,0,0,0,0,0,0,0,0,0,0,0,0,0,0,0,0,0,0,0,0,0,0,0,0,0,0,0,0,0,0,0,0,0,0,0,0,23120,0,
   |0,0,0,0,0,0,0,0,0,0,9248,0,0,0,0,0,0,0,0,0,0,0,0,0,0,0,0,0,0,0,0,9248,0,0,0,0,0,0,0,0,0,0,0,0,0,0,0,0,0,0,0,0,0,9248,0,0,0,0,0,0,0,0,0,0,0,0,0,0,0,0,0,0,0,0,9248,
   |0,0,0,0,0,0,0,0,220800,0,0,0,0,0,0,0,0,0,0,0,0,0,0,0,0,0,0,0,0,0,0,0,0,0,0,0,0,0,0,0,0,0,0,0,0,220800,0,0,0,0,0,0,0,0,0,0,0,0,0,0,0,0,0,0,0,0,0,0,0,0,0,0,0,0,0,
   |0,0,0,0,0,0,0,0,0,0,0,0,0,0,0,0,0,0,0,0,0,0,0,0,0,0,0,0,0,0,0,0,0,0,0,0,0,0,0,0,0,0,0,0,0,0,0,0,0,0,0,0,0,0,0,0,0,0,0,0,0,0,0,0,0,0,23120,0,0,0,0,0,0,0,0,
   |0,0,0,0,0,0,0,0,0,0,0,0,0,0,0,0,0,0,0,1800000,0,0,0,0,0,0,0,0,0,0,0,0,0,0,0,0,0,0,0,0,0,0,0,0,0,0,0,0,0,0,0,0,0,0,0,0,0,0,0,0,0,0,0,0,0,0,0,0,0,0,0,0,0,0,0,
   |0,0,0,0,0,0,0,0,0,0,0,2100000,0,0,0,0,0,0,0,0,0,0,0,0,0,0,0,0,0,0,0,0,0,0,0,0,0,0,0,0,0,0,0,0,0,0,0,0,0,0,0,0,0,0,0,0,0,0,0,0,0,0,0,0,0,0,0,0,0,0,0,0,0,0,0,
   |0,0,0,0,0,0,0,0,0,0,0,0,0,0,0,0,0,0,0,0,1800000,0,0,0,0,0,0,0,0,0,0,0,0,0,0,0,0,0,0,0,0,0,0,0,0,0,0,0,0,0,0,0,0,0,0,0,0,0,0,0,0,0,0,0,0,0,0,0,0,0,0,0,0,0,0,
   |0,0,0,0,0,0,0,0,0,0,0,0,0,0,0,0,0,0,0,0,0,0,0,0,0,4632000,0,0,0,0,0,0,0,0,0,0,0,0,0,0,0,0,0,0,0,0,0,0,0,0,0,0,0,0,0,0,0,0,0,0,0,0,0,0,0,0,0,0,0,0,0,0,0,0,0,
   |0,0,0,0,0,0,0,0,0,0,0,0,0,0,0,0,0,0,0,0,0,0,0,0,0,0,0,0,0,0,0,0,0,11360,0,0,0,0,0,0,0,0,0,0,0,0,0,0,0,0,0,0,0,0,0,0,0,0,0,0,0,0,0,0,0,0,0,0,0,0,0,0,0,0,0,
   |0,0,0,0,0,0,0,0,0,0,0,0,0,0,0,0,0,0,0,0,0,0,0,0,0,0,0,0,2100000,0,0,0,0,0,0,0,0,0,0,0,0,0,0,0,0,0,0,0,0,0,0,0,0,0,0,0,0,0,0,0,0,0,0,0,0,0,0,0,0,0,0,0,0,0,0,
   |0,0,0,0,0,0,0,0,0,0,0,0,0,0,0,0,0,0,0,0,0,0,0,0,0,0,0,0,0,0,0,0,0,0,11360,0,0,0,0,0,0,0,0,0,0,0,0,0,0,0,0,0,0,0,0,0,0,0,0,0,0,0,0,0,0,0,0,0,0,0,0,0,0,0,0,
   |0,0,0,0,0,0,4674000,0,0,0,0,0,0,0,0,0,0,0,0,0,0,0,0,0,0,0,0,0,0,0,0,0,0,0,0,0,0,0,0,0,0,0,0,0,0,0,0,0,0,0,0,0,0,0,0,0,0,0,0,0,0,0,0,0,0,0,0,0,0,0,0,0,0,0,0,
   |0,0,0,0,0,0,0,0,0,0,0,0,0,0,0,0,0,0,0,0,0,0,0,0,0,0,0,0,0,0,0,0,0,0,0,0,0,0,0,0,0,0,0,0,0,0,0,0,0,0,0,0,0,0,4416,0,0,0,0,0,0,0,0,0,0,0,0,0,0,0,0,0,0,0,0,
   |0,0,0,0,0,0,0,0,0,0,0,0,0,0,0,0,0,0,0,0,0,0,0,0,0,0,0,0,0,0,0,0,0,0,0,0,0,0,0,0,0,0,0,0,0,0,0,0,0,0,0,0,0,0,0,0,0,0,0,0,0,0,0,0,0,0,0,0,0,0,0,0,8160,0,0,
   |0,0,0,0,0,0,0,220800,0,0,0,0,0,0,0,0,0,0,0,0,0,0,0,0,0,0,0,0,0,0,0,0,0,0,0,0,0,220800,0,0,0,0,0,0,0,0,0,0,0,0,0,0,0,0,0,0,0,0,0,0,0,0,0,0,0,0,0,0,0,0,0,0,0,0,0,
   |0,0,0,0,0,0,0,0,0,0,0,0,0,0,0,0,0,0,0,0,0,0,0,0,0,0,0,0,0,23120,0,0,0,0,0,0,0,0,0,0,0,0,0,0,0,0,0,0,0,0,0,0,0,0,0,0,0,0,0,0,0,0,0,0,0,0,0,0,0,0,0,0,0,0,0,
   |0,0,0,0,0,0,0,0,0,0,0,0,0,0,0,0,0,0,0,0,0,0,0,0,0,0,0,0,0,0,0,0,0,0,0,0,0,0,0,0,0,0,0,0,0,0,0,0,0,0,0,0,0,0,0,0,0,0,0,0,0,0,0,0,0,0,0,3720000,0,0,0,0,0,0,0,
   |0,0,0,0,0,0,0,0,0,0,0,0,0,0,0,0,0,0,0,0,0,22720,0,0,0,0,0,0,0,0,0,0,0,0,0,0,0,0,0,0,0,0,0,0,0,0,0,0,0,0,0,0,0,0,0,0,0,0,0,0,0,0,0,0,0,0,0,0,0,0,0,0,0,0,0,
   |0,0,0,0,0,0,0,0,0,0,0,0,23120,0,0,0,0,0,0,0,0,0,0,0,0,0,0,0,0,0,0,0,0,0,0,0,0,0,0,0,0,0,0,0,0,0,0,0,0,0,0,0,0,0,0,0,0,0,0,0,0,0,0,0,0,0,0,0,0,0,0,0,0,0,0,
   |0,0,0,0,0,0,0,0,0,0,0,0,0,0,0,0,0,0,0,0,0,0,0,0,0,0,0,0,0,0,0,0,0,0,0,0,0,0,0,0,0,0,0,0,0,0,0,0,0,0,0,0,0,0,0,0,0,0,0,0,0,0,0,0,0,0,0,0,1800000,0,0,0,0,0,0,
   |0,0,0,0,0,0,0,0,0,0,0,0,0,0,0,0,0,0,0,0,0,0,0,0,0,0,0,0,0,0,0,0,0,0,0,0,0,0,0,0,0,0,0,0,0,0,2400000,0,0,0,0,0,0,0,0,0,0,0,0,0,0,0,0,0,0,0,0,0,0,0,0,0,0,0,0,
   |0,0,0,0,0,0,0,0,0,6442800,0,0,0,0,0,0,0,0,0,0,0,0,0,0,0,0,0,0,0,0,0,0,0,0,0,0,0,0,0,0,0,0,0,0,0,0,0,0,0,0,0,0,0,0,0,0,0,0,0,0,0,0,0,0,0,0,0,0,0,0,0,0,0,0,0,
   |0,0,0,0,0,0,0,0,0,0,0,0,0,0,0,0,0,0,0,0,0,0,0,0,0,0,0,0,0,0,0,0,0,0,0,0,0,0,0,0,0,0,0,0,0,0,0,0,0,0,0,0,0,0,0,0,0,0,0,0,0,0,0,0,0,0,0,0,0,18864000,0,0,0,0,0,
   |0,0,0,0,0,0,0,0,0,0,0,0,0,0,0,0,0,0,0,0,0,0,0,0,0,0,0,0,0,0,18864000,0,0,0,0,0,0,0,0,0,0,0,0,0,0,0,0,0,0,0,0,0,0,0,0,0,0,0,0,0,0,0,0,0,0,0,0,0,0,0,0,0,0,0,0,
   |0,0,0,0,0,0,0,0,0,0,220800,0,0,0,0,0,0,0,0,0,0,0,0,0,0,0,0,0,0,0,0,220800,0,0,0,0,0,0,0,0,0,0,0,0,0,0,0,0,0,0,0,0,0,0,0,0,0,0,0,0,0,0,0,0,0,0,0,0,0,0,0,0,0,0,0,
   |0,0,0,0,0,0,0,0,0,0,0,0,0,0,0,0,0,0,0,0,0,0,2100000,0,0,0,0,0,0,0,0,0,0,0,0,0,0,0,0,0,0,0,0,0,0,0,0,0,0,0,0,0,0,0,0,0,0,0,0,0,0,0,0,0,0,0,0,0,0,0,0,0,0,0,0,
   |0,0,0,0,0,0,0,0,0,0,0,0,0,220800,0,0,0,0,0,0,0,0,0,0,0,0,0,0,0,0,0,0,0,0,0,0,0,0,0,0,0,0,0,0,0,0,0,0,0,0,0,0,0,0,0,0,0,0,0,0,0,0,0,0,0,0,0,0,0,0,0,0,0,220800,0,
   |0,0,0,0,0,0,0,0,18864000,0,0,0,0,0,0,0,0,0,0,0,0,0,0,0,0,0,0,0,0,0,0,0,0,0,0,0,0,0,0,0,0,0,0,0,0,0,0,0,0,0,0,0,0,0,0,0,0,0,0,0,0,0,0,0,0,0,0,0,0,0,0,0,0,0,0,
   |0,0,0,0,0,0,0,0,0,0,0,0,0,0,0,0,6720,0,0,0,0,0,0,0,0,0,0,0,0,0,0,0,0,0,0,0,0,0,0,0,0,0,0,0,0,0,0,0,0,0,0,0,0,0,0,0,0,0,0,0,0,0,0,0,0,0,0,0,0,0,0,0,0,0,0,
   |0,0,0,0,2100000,0,0,0,0,0,0,0,0,0,0,0,0,0,0,0,0,0,0,0,0,0,0,0,0,0,0,0,0,0,0,0,0,0,0,0,0,0,0,0,0,0,0,0,0,0,0,0,0,0,0,0,0,0,0,0,0,0,0,0,0,0,0,0,0,0,0,0,0,0,0,
   |0,0,0,0,0,0,0,0,0,0,0,0,0,0,0,0,0,0,0,0,0,0,0,0,0,0,0,0,0,0,0,0,0,0,0,0,0,0,220800,0,0,0,0,0,0,0,0,0,0,0,0,0,0,0,0,0,0,0,0,0,0,0,0,0,0,0,0,0,0,0,0,0,0,0,220800,
   |0,220800,0,0,0,0,0,0,0,0,0,0,0,0,0,0,0,0,0,0,0,0,0,0,0,0,0,0,0,0,0,0,0,0,0,0,0,0,0,0,0,0,0,0,0,0,0,0,0,0,0,0,0,0,0,0,0,0,0,0,0,0,0,0,0,0,0,0,0,0,0,0,0,0,0,
   |0,0,0,0,0,0,0,0,0,0,0,0,0,0,0,0,0,0,0,0,0,0,0,0,0,0,0,0,0,0,0,0,0,0,0,0,0,0,0,0,0,0,0,0,0,0,0,0,0,0,0,0,0,0,0,0,0,0,0,0,0,0,0,220800,0,0,0,0,0,0,0,0,220800,0,0,
   |0,0,220800,0,0,0,0,0,0,0,0,0,0,0,0,0,0,0,0,0,0,0,0,0,0,0,0,0,0,0,0,0,0,0,0,0,0,0,0,0,0,0,0,0,0,0,0,0,0,0,0,0,0,0,0,0,0,0,0,0,0,0,0,0,220800,0,0,0,0,0,0,0,0,0,0,
   |0,0,0,0,0,0,0,0,0,0,0,0,0,0,0,0,0,0,0,0,0,0,0,0,0,0,0,0,0,0,0,0,0,0,0,0,0,0,0,0,0,0,0,0,0,0,0,0,0,0,0,0,0,0,0,3710400,0,0,0,0,0,0,0,0,0,0,0,0,0,0,0,0,0,0,0,
   |0,0,0,0,0,0,0,0,0,220800,0,0,0,0,0,0,0,0,0,0,0,0,0,0,0,0,0,0,0,0,0,0,0,0,0,0,0,0,0,0,0,0,0,0,0,0,0,0,0,0,0,0,0,0,0,0,0,0,0,0,0,0,0,0,0,0,0,0,0,0,0,0,0,0,0,
   |0,0,0,0,0,0,0,0,0,0,0,0,0,0,0,0,0,0,0,0,0,0,0,0,0,0,0,0,0,0,0,0,0,0,0,0,0,0,0,0,0,0,0,0,0,0,0,0,0,0,0,0,0,0,0,0,0,0,0,0,0,0,0,0,0,0,0,0,0,0,0,0,0,4416,0,
   |0,0,0,11360,0,11360,0,0,0,0,0,0,0,0,0,0,0,0,0,0,0,0,0,0,0,0,0,0,11360,0,0,0,0,0,0,0,0,0,0,0,0,0,0,0,0,0,0,0,0,0,0,0,0,0,0,0,0,0,0,0,0,0,0,0,0,0,0,0,0,0,0,0,0,0,0,
   |0,0,0,0,0,0,0,0,0,0,9248,0,0,0,0,0,0,0,0,0,0,0,0,0,0,0,0,0,0,0,0,0,0,0,0,0,0,0,0,0,0,0,0,0,0,0,0,0,0,0,0,0,0,0,0,0,0,0,0,0,0,0,0,0,0,0,0,0,0,0,0,0,0,0,0,
   |0,0,0,0,0,0,220800,0,0,0,0,0,0,0,0,0,0,0,0,0,0,0,0,0,0,0,0,0,0,0,0,0,0,0,0,0,0,0,0,0,0,0,0,0,0,0,0,0,0,0,0,0,0,0,0,0,220800,0,0,0,0,0,0,0,0,0,0,0,0,0,0,0,0,0,0,
   |0,0,0,0,0,0,0,0,0,0,0,0,0,0,0,0,0,0,0,0,0,0,0,0,0,0,0,0,0,0,0,0,0,0,0,0,0,0,0,0,0,0,0,0,0,0,0,0,0,0,0,0,0,0,0,0,0,0,0,0,0,0,0,0,0,0,0,0,0,0,7420800,0,0,0,0
|];
num_links = 18;
capacity = [100000000, 100000000, 100000000, 100000000, 100000000, 100000000, 100000000, 100000000, 100000000, 100000000, 100000000, 100000000, 100000000, 100000000, 100000000, 1000000000, 100000000, 100000000];
shortest_path = [|
   {}, {8, 12, 14}, {8, 12, 15}, {8, 6, 18}, {8, 17}, {8, 12, 16}, {8, 6, 1}, {8, 6, 2}, {8, 6, 3}, {8, 12, 13}, {8, 5, 4}, {8, 5, 7}, {8, 12, 11, 9}, {8, 12, 11, 10}, {8, 6}, {8}, {8, 12}, {8, 5}, {8, 12, 11},
   |{14, 12, 8}, {}, {14, 15}, {14, 12, 6, 18}, {14, 12, 17}, {14, 16}, {14, 12, 6, 1}, {14, 12, 6, 2}, {14, 12, 6, 3}, {14, 13}, {14, 12, 5, 4}, {14, 12, 5, 7}, {14, 11, 9}, {14, 11, 10}, {14, 12, 6}, {14, 12}, {14}, {14, 12, 5}, {14, 11},
   |{15, 12, 8}, {15, 14}, {}, {15, 12, 6, 18}, {15, 12, 17}, {15, 16}, {15, 12, 6, 1}, {15, 12, 6, 2}, {15, 12, 6, 3}, {15, 13}, {15, 12, 5, 4}, {15, 12, 5, 7}, {15, 11, 9}, {15, 11, 10}, {15, 12, 6}, {15, 12}, {15}, {15, 12, 5}, {15, 11},
   |{18, 6, 8}, {18, 6, 12, 14}, {18, 6, 12, 15}, {}, {18, 6, 17}, {18, 6, 12, 16}, {18, 1}, {18, 2}, {18, 3}, {18, 6, 12, 13}, {18, 6, 5, 4}, {18, 6, 5, 7}, {18, 6, 12, 11, 9}, {18, 6, 12, 11, 10}, {18}, {18, 6}, {18, 6, 12}, {18, 6, 5}, {18, 6, 12, 11},
   |{17, 8}, {17, 12, 14}, {17, 12, 15}, {17, 6, 18}, {}, {17, 12, 16}, {17, 6, 1}, {17, 6, 2}, {17, 6, 3}, {17, 12, 13}, {17, 5, 4}, {17, 5, 7}, {17, 12, 11, 9}, {17, 12, 11, 10}, {17, 6}, {17}, {17, 12}, {17, 5}, {17, 12, 11},
   |{16, 12, 8}, {16, 14}, {16, 15}, {16, 12, 6, 18}, {16, 12, 17}, {}, {16, 12, 6, 1}, {16, 12, 6, 2}, {16, 12, 6, 3}, {16, 13}, {16, 12, 5, 4}, {16, 12, 5, 7}, {16, 11, 9}, {16, 11, 10}, {16, 12, 6}, {16, 12}, {16}, {16, 12, 5}, {16, 11},
   |{1, 6, 8}, {1, 6, 12, 14}, {1, 6, 12, 15}, {1, 18}, {1, 6, 17}, {1, 6, 12, 16}, {}, {1, 2}, {1, 3}, {1, 6, 12, 13}, {1, 6, 5, 4}, {1, 6, 5, 7}, {1, 6, 12, 11, 9}, {1, 6, 12, 11, 10}, {1}, {1, 6}, {1, 6, 12}, {1, 6, 5}, {1, 6, 12, 11},
   |{2, 6, 8}, {2, 6, 12, 14}, {2, 6, 12, 15}, {2, 18}, {2, 6, 17}, {2, 6, 12, 16}, {2, 1}, {}, {2, 3}, {2, 6, 12, 13}, {2, 6, 5, 4}, {2, 6, 5, 7}, {2, 6, 12, 11, 9}, {2, 6, 12, 11, 10}, {2}, {2, 6}, {2, 6, 12}, {2, 6, 5}, {2, 6, 12, 11},
   |{3, 6, 8}, {3, 6, 12, 14}, {3, 6, 12, 15}, {3, 18}, {3, 6, 17}, {3, 6, 12, 16}, {3, 1}, {3, 2}, {}, {3, 6, 12, 13}, {3, 6, 5, 4}, {3, 6, 5, 7}, {3, 6, 12, 11, 9}, {3, 6, 12, 11, 10}, {3}, {3, 6}, {3, 6, 12}, {3, 6, 5}, {3, 6, 12, 11},
   |{13, 12, 8}, {13, 14}, {13, 15}, {13, 12, 6, 18}, {13, 12, 17}, {13, 16}, {13, 12, 6, 1}, {13, 12, 6, 2}, {13, 12, 6, 3}, {}, {13, 12, 5, 4}, {13, 12, 5, 7}, {13, 11, 9}, {13, 11, 10}, {13, 12, 6}, {13, 12}, {13}, {13, 12, 5}, {13, 11},
   |{4, 5, 8}, {4, 5, 12, 14}, {4, 5, 12, 15}, {4, 5, 6, 18}, {4, 5, 17}, {4, 5, 12, 16}, {4, 5, 6, 1}, {4, 5, 6, 2}, {4, 5, 6, 3}, {4, 5, 12, 13}, {}, {4, 7}, {4, 5, 12, 11, 9}, {4, 5, 12, 11, 10}, {4, 5, 6}, {4, 5}, {4, 5, 12}, {4}, {4, 5, 12, 11},
   |{7, 5, 8}, {7, 5, 12, 14}, {7, 5, 12, 15}, {7, 5, 6, 18}, {7, 5, 17}, {7, 5, 12, 16}, {7, 5, 6, 1}, {7, 5, 6, 2}, {7, 5, 6, 3}, {7, 5, 12, 13}, {7, 4}, {}, {7, 5, 12, 11, 9}, {7, 5, 12, 11, 10}, {7, 5, 6}, {7, 5}, {7, 5, 12}, {7}, {7, 5, 12, 11},
   |{9, 11, 12, 8}, {9, 11, 14}, {9, 11, 15}, {9, 11, 12, 6, 18}, {9, 11, 12, 17}, {9, 11, 16}, {9, 11, 12, 6, 1}, {9, 11, 12, 6, 2}, {9, 11, 12, 6, 3}, {9, 11, 13}, {9, 11, 12, 5, 4}, {9, 11, 12, 5, 7}, {}, {9, 10}, {9, 11, 12, 6}, {9, 11, 12}, {9, 11}, {9, 11, 12, 5}, {9},
   |{10, 11, 12, 8}, {10, 11, 14}, {10, 11, 15}, {10, 11, 12, 6, 18}, {10, 11, 12, 17}, {10, 11, 16}, {10, 11, 12, 6, 1}, {10, 11, 12, 6, 2}, {10, 11, 12, 6, 3}, {10, 11, 13}, {10, 11, 12, 5, 4}, {10, 11, 12, 5, 7}, {10, 9}, {}, {10, 11, 12, 6}, {10, 11, 12}, {10, 11}, {10, 11, 12, 5}, {10},
   |{6, 8}, {6, 12, 14}, {6, 12, 15}, {18}, {6, 17}, {6, 12, 16}, {1}, {2}, {3}, {6, 12, 13}, {6, 5, 4}, {6, 5, 7}, {6, 12, 11, 9}, {6, 12, 11, 10}, {}, {6}, {6, 12}, {6, 5}, {6, 12, 11},
   |{8}, {12, 14}, {12, 15}, {6, 18}, {17}, {12, 16}, {6, 1}, {6, 2}, {6, 3}, {12, 13}, {5, 4}, {5, 7}, {12, 11, 9}, {12, 11, 10}, {6}, {}, {12}, {5}, {12, 11},
   |{12, 8}, {14}, {15}, {12, 6, 18}, {12, 17}, {16}, {12, 6, 1}, {12, 6, 2}, {12, 6, 3}, {13}, {12, 5, 4}, {12, 5, 7}, {11, 9}, {11, 10}, {12, 6}, {12}, {}, {12, 5}, {11},
   |{5, 8}, {5, 12, 14}, {5, 12, 15}, {5, 6, 18}, {5, 17}, {5, 12, 16}, {5, 6, 1}, {5, 6, 2}, {5, 6, 3}, {5, 12, 13}, {4}, {7}, {5, 12, 11, 9}, {5, 12, 11, 10}, {5, 6}, {5}, {5, 12}, {}, {5, 12, 11},
   |{11, 12, 8}, {11, 14}, {11, 15}, {11, 12, 6, 18}, {11, 12, 17}, {11, 16}, {11, 12, 6, 1}, {11, 12, 6, 2}, {11, 12, 6, 3}, {11, 13}, {11, 12, 5, 4}, {11, 12, 5, 7}, {9}, {10}, {11, 12, 6}, {11, 12}, {11}, {11, 12, 5}, {}|];
services2names = ["S4_BE_1", "S4_BE_2", "S2_Audio_1", "S4_BE_3", "S1_C&C_1_1", "S2_Audio_2", "S1_C&C_1_2", "S4_BE_4", "S1_C&C_1_3", "S3_Video_1", "S4_BE_5", "S4_BE_6", "S2_Audio_3", "S1_C&C_2_1", "S2_Audio_4", "S3_Video_2", "S2_Audio_5", "S4_BE_7", "S4_BE_8", "S1_C&C_1_4", "S3_Video_3", "S1_C&C_1_5", "S4_BE_9", "S4_BE_10", "S2_Audio_6", "S2_Audio_7", "S2_Audio_8", "S1_C&C_2_2", "S3_Video_4", "S2_Audio_9", "S1_C&C_2_3", "S2_Audio_10", "S1_C&C_1_6", "S1_C&C_1_7", "S4_BE_11", "S4_BE_12", "S1_C&C_1_8", "S4_BE_13", "S2_Audio_11", "S2_Audio_12", "S2_Audio_13", "S3_Video_5", "S4_BE_14", "S2_Audio_14", "S4_BE_15", "S3_Video_6", "S1_C&C_2_4", "S4_BE_16", "S1_C&C_1_9", "S4_BE_17", "S3_Video_7", "S4_BE_18", "S4_BE_19", "S2_Audio_15", "S2_Audio_16", "S3_Video_8", "S3_Video_9", "S3_Video_10", "S1_C&C_1_10", "S2_Audio_17", "S1_C&C_1_11", "S3_Video_11", "S4_BE_20", "S2_Audio_18", "S1_C&C_1_12", "S1_C&C_1_13", "S1_C&C_1_14", "S1_C&C_1_15", "S3_Video_12", "S1_C&C_1_16", "S1_C&C_2_5", "S4_BE_21", "S4_BE_22", "S1_C&C_1_17", "S3_Video_13"];
locations2names = ["ECU1", "ECU2", "ECU3", "DM1", "DM2", "DM3", "CAM1", "CAM2", "CAM3", "CAM4", "Display1", "Display2", "Display3", "Display4", "Switch1", "Switch2", "Switch3", "Switch4", "Switch5"];
